data/MCDM/NO_CORR/GEN_FROM_60/18_ITEMS_1000_GEN/K5018W11.KNP.mps
NAME          BLANK   
ROWS
 N  OBJROW
 L  R0000000
COLUMNS
    C0000000  OBJROW     -842.         R0000000  821.        
    C0000001  OBJROW     -439.         R0000000  830.        
    C0000002  OBJROW     -18.          R0000000  864.        
    C0000003  OBJROW     -560.         R0000000  755.        
    C0000004  OBJROW     -62.          R0000000  198.        
    C0000005  OBJROW     -317.         R0000000  485.        
    C0000006  OBJROW     -164.         R0000000  836.        
    C0000007  OBJROW     -162.         R0000000  60.         
    C0000008  OBJROW     -810.         R0000000  469.        
    C0000009  OBJROW     -976.         R0000000  173.        
    C0000010  OBJROW     -417.         R0000000  507.        
    C0000011  OBJROW     -805.         R0000000  879.        
    C0000012  OBJROW     -100.         R0000000  843.        
    C0000013  OBJROW     -149.         R0000000  955.        
    C0000014  OBJROW     -668.         R0000000  232.        
    C0000015  OBJROW     -647.         R0000000  675.        
    C0000016  OBJROW     -164.         R0000000  928.        
    C0000017  OBJROW     -152.         R0000000  449.        
RHS
    RHS       R0000000  15060.      
BOUNDS
 BV BOUND     C0000000  1.          
 BV BOUND     C0000001  1.          
 BV BOUND     C0000002  1.          
 BV BOUND     C0000003  1.          
 BV BOUND     C0000004  1.          
 BV BOUND     C0000005  1.          
 BV BOUND     C0000006  1.          
 BV BOUND     C0000007  1.          
 BV BOUND     C0000008  1.          
 BV BOUND     C0000009  1.          
 BV BOUND     C0000010  1.          
 BV BOUND     C0000011  1.          
 BV BOUND     C0000012  1.          
 BV BOUND     C0000013  1.          
 BV BOUND     C0000014  1.          
 BV BOUND     C0000015  1.          
 BV BOUND     C0000016  1.          
 BV BOUND     C0000017  1.          
ENDATA
