data/MCDM/NO_CORR/GEN_FROM_60/18_ITEMS_1000_GEN/K5018W11.KNP.txt
N 18
M 19
LC 18
LC 19
LC 20
LC 21
LC 22
LC 23
LC 24
LC 25
LC 26
LC 27
LC 28
LC 29
LC 30
LC 31
LC 32
LC 33
LC 34
LC 35
LR 1
LR 2
LR 3
LR 4
LR 5
LR 6
LR 7
LR 8
LR 9
LR 10
LR 11
LR 12
LR 13
LR 14
LR 15
LR 16
LR 17
LR 18
LR 19
LO -842
LO -439
LO -18
LO -560
LO -62
LO -317
LO -164
LO -162
LO -810
LO -976
LO -417
LO -805
LO -100
LO -149
LO -668
LO -647
LO -164
LO -152
OS 1
IC 571
IC 173
IC 432
IC 793
IC 520
IC 201
IC 905
IC 850
IC 850
IC 163
IC 17
IC 576
IC 250
IC 491
IC 480
IC 249
IC 618
IC 691
IB 4415
